c A SAT instance generated from a 3-CNF formula that had 32 clauses and 8 variables
p cnf 8 32
-2 -8 7 0
-7 5 -8 0
-5 7 -4 0
-5 -3 2 0
-1 -6 2 0
-3 1 -2 0
-5 -2 7 0
4 8 -5 0
-3 7 6 0
-6 5 -3 0
-3 -5 1 0
2 -6 -7 0
4 2 -8 0
6 1 -5 0
-3 -4 -5 0
2 4 -3 0
-1 -2 -5 0
6 4 7 0
-6 -7 -4 0
-4 5 2 0
-2 -7 5 0
2 -5 1 0
5 3 -4 0
-2 -7 1 0
3 -7 5 0
-4 -7 1 0
7 4 1 0
-1 -6 -5 0
-2 -1 6 0
-3 -4 -6 0
-8 4 5 0
4 8 3 0
